1635750780
1635782280
1635923520
1635952020
1636095420
1636126914
1636355640
1636385418
1636527600
1636559280
1636701000
1636733077
1636959120
1636990518
1637140080
1637151523
1637132400
1637163000
1637140080
1637151480
1637305980
1637331475
1637564400
1637595000
1637737200
1637768054
1637910000
1637940913
1638169200
1638200575
